GLPSOL: GLPK LP/MIP Solver, v4.55
Parameter(s) specified in the command line:
 -m tmp.mod
Reading model section from tmp.mod...
Reading data section from tmp.mod...
4343 lines were read
Generating obj...
Generating kirhoff...
Generating init_charge...
Generating batt_size...
Model has been successfully generated
GLPK Simplex Optimizer, v4.55
4686 rows, 7172 columns, 14956 non-zeros
Preprocessing...
3560 rows, 7036 columns, 14668 non-zeros
Scaling...
 A: min|aij| =  1.000e+00  max|aij| =  1.000e+00  ratio =  1.000e+00
Problem data seem to be well scaled
Constructing initial basis...
Size of triangular part is 2824
      0: obj =   0.000000000e+00  infeas =  3.038e+03 (736)
    500: obj =   6.100000000e+01  infeas =  1.541e+03 (530)
   1000: obj =   1.420000000e+02  infeas =  5.600e+01 (404)
*  1195: obj =   1.440000000e+02  infeas =  0.000e+00 (385)
*  1500: obj =   3.600000000e+01  infeas =  0.000e+00 (366)
*  1608: obj =   1.200000000e+01  infeas =  0.000e+00 (361)
OPTIMAL LP SOLUTION FOUND
Time used:   0.4 secs
Memory used: 14.4 Mb (15092680 bytes)
#OUTPUT:
12
-12 -62 -3 -4 -3 0 -17 0 -7 0 0 -50 0 0 0 0 0 1 0 0 0 0 0 0 -95 0 -92 50 0 0 0 0 0 0 0 0 0 -37 -1 -50 0 0 0 0 0 0 0 -50 0 -44 0 0 0 0 0 -7 0 0 0 0 0 0 3 0 0 0 0 3 0 0 -2 0 0 0 0 0 4 0 0 0 0 0 -9 0 0 0 0 0 -22 -2 0 0 0 0 3 0 0 0 0 0 -2 0 3 0 0 0 0 0 -10 0 0 -14 0 0 0 0 0 0 0 0 0 0 0 0 1 0 0 0 0 0 0 0 0 0 -2 0 0 -2 0 -3 -50 0 0 0 0 0 0 0 0 0 0 0 0 0 0 0 -3 0 -3 0 0 0 0 -8 15 0 0 0 0 0 0 0 0 0 -3 0 0 0 0 0 0 0 0 0 0 0 0 0 0 0 0 12 0 0 0 0 0 0 0 3 1 0 0 0 0 0 0 0 0 0 0 0 0 0 6 -4 0 0 0 0 0 0 0 0 0 0 0 -22 0 0 -50 0 0 0 0 0 0 0 0 0 -70 0 0 4 0 0 0 0 0 0 0 0 0 0 0 0 0 0 0 0 0 0 4 0 0 -70 -50 0 -50 0 0 0 0 0 0 0 0 0 0 0 0 -4 0 0 0 0 0 0 0 0 0 0 0 0 0 -5 0 4 0 0 0 0 0 0 0 0 0 0 0 0 0 0 0 0 0 0 0 0 0 0 0 92 0 0 0 0 0 0 0 0 0 0 0 0 0 0 0 0 0 0 0 0 0 0 0 -50 1 0 2 0 -41 -2 2 0 0 -8 0 0 0 0 3 0 0 50 -44 -3 -1 -4 -6 0 0 10 12 0 0 0 -4 0 -2 2 0 0 0 0 0 0 0 0 0 0 0 0 -2 7 0 0 -4 0 -92 0 0 0 0 0 0 0 0 0 0 0 0 0 0 0 0 0 0 0 0 0 0 0 0 0 0 0 0 0 0 0 0 0 0 0 0 0 0 0 0 0 0 0 0 0 0 0 0 0 0 0 0 0 0 0 0 0 0 0 0 0 0 0 0 0 0 0 0 0 0 0 0 0 0 0 0 
-26 -98 -10 -12 -8 -51 -5 -4 -1 0 -41 0 -9 0 0 1 0 -8 0 0 0 -42 0 0 -17 0 -6 0 -7 0 -41 0 0 0 -2 0 -8 6 -1 0 0 0 0 -5 10 0 10 0 0 0 0 0 0 -4 0 -1 0 -42 4 4 8 0 -6 -1 0 0 0 -6 0 0 0 10 0 0 0 -2 1 0 0 0 0 0 9 0 1 0 0 -8 -26 0 2 0 0 0 -5 -1 -6 0 0 0 0 0 4 0 0 0 0 0 0 0 0 -5 0 0 0 0 0 0 0 -2 0 0 0 0 -1 0 0 0 0 0 0 0 0 0 0 0 0 0 0 1 0 0 0 0 5 0 0 0 0 -50 0 0 0 0 0 0 -4 0 0 0 0 0 0 0 0 0 -10 0 0 0 7 2 0 0 -4 0 0 0 0 0 0 0 0 0 0 0 0 0 0 0 0 -15 0 0 0 0 -7 0 -2 -5 -1 0 0 0 0 0 -5 0 0 0 0 0 0 0 6 -5 0 0 0 0 -4 0 0 0 -6 0 7 -26 0 0 0 0 0 0 7 0 0 0 0 0 0 0 0 1 0 0 0 0 0 0 0 0 -7 0 0 0 0 0 0 0 0 -50 1 0 0 0 0 0 0 0 0 0 0 0 0 0 0 0 0 0 0 -5 0 0 -2 0 0 0 -2 0 0 0 0 0 0 0 0 5 0 0 0 0 0 0 0 0 0 0 0 0 0 0 0 0 0 0 0 0 0 0 0 16 0 0 0 -5 1 0 0 0 0 0 0 0 0 0 0 0 0 7 0 0 0 -4 -8 0 -8 0 0 0 5 -5 5 0 0 0 10 7 -7 0 4 0 0 0 8 5 1 -5 -6 4 0 -8 34 0 0 7 -1 0 0 0 1 -1 0 2 0 2 0 0 0 0 0 0 0 0 0 0 -5 0 -16 0 5 -1 0 0 2 -2 0 -7 0 0 0 0 0 0 0 0 0 0 0 0 0 0 0 0 0 0 0 0 0 0 0 0 0 0 0 0 0 0 0 0 0 0 0 0 0 0 0 0 0 0 0 0 0 0 0 0 0 0 0 0 0 0 0 0 0 0 0 0 0 0 0 0 0 0 0 
-14 -91 0 -5 0 -59 -29 0 0 0 -2 0 0 0 0 0 0 -4 0 0 0 0 0 0 -82 0 -3 0 0 -56 0 0 0 0 0 0 0 0 -1 0 -77 -6 0 0 10 0 0 0 0 0 0 0 0 0 0 0 0 0 0 0 0 0 0 0 0 -3 0 0 -34 -6 -4 10 0 0 0 0 0 0 0 0 7 0 0 0 -4 -84 0 0 0 1 0 -84 0 0 -79 0 0 0 0 0 3 0 -1 -2 0 0 0 0 0 0 0 0 0 0 0 0 0 0 0 0 -2 0 0 0 2 0 0 0 0 0 0 -6 0 0 -5 0 -39 -5 1 1 0 0 0 0 0 -47 0 0 0 0 0 0 0 0 0 0 0 0 0 0 0 0 0 0 0 0 -10 0 0 0 0 0 0 0 1 2 0 -1 0 0 5 0 0 0 0 0 0 0 5 0 0 0 0 0 0 0 0 0 0 -79 0 0 0 0 0 0 0 0 0 0 0 0 0 0 0 -5 0 -2 0 0 0 0 0 0 0 0 0 0 0 0 0 -47 0 0 0 0 0 0 0 0 0 0 0 0 0 0 0 0 8 5 0 0 0 0 0 0 0 0 0 0 0 0 0 0 0 0 0 -2 0 0 0 0 0 -47 0 0 0 0 0 -1 0 -5 0 0 0 8 0 0 0 0 4 2 0 0 0 -1 3 0 0 0 0 0 0 0 0 0 0 -56 0 0 0 0 0 0 0 -8 1 0 0 0 0 5 0 0 0 0 0 0 0 0 0 0 0 0 0 0 0 0 0 0 0 0 0 0 0 0 -4 0 -3 2 0 -4 4 0 0 0 10 0 0 0 -1 1 0 0 0 79 0 -5 0 0 0 0 0 -5 0 0 0 0 1 1 0 0 5 0 -8 0 0 0 -4 -2 0 0 1 0 -3 0 0 -1 -5 0 0 0 0 0 0 0 0 0 0 0 0 0 0 0 0 0 0 0 0 0 0 0 0 0 0 0 0 0 0 0 0 0 0 0 0 0 0 0 0 0 0 0 0 0 0 0 0 0 0 0 0 0 0 0 0 0 0 0 0 0 0 0 0 0 0 0 0 0 0 0 0 0 0 0 0 
-20 -42 -7 -5 -3 -9 -19 -6 0 0 -6 -19 13 0 0 -1 0 -8 0 0 -3 -6 0 0 0 2 0 0 -9 0 0 0 -19 -2 3 0 0 0 -1 0 0 0 0 0 0 0 0 0 0 -7 0 0 0 4 0 0 0 -6 -2 -2 0 4 15 0 0 0 0 15 0 0 -2 0 0 0 0 -2 0 0 -6 0 0 0 8 0 0 0 0 -7 0 0 0 0 0 0 0 0 0 0 0 0 0 0 -3 -3 0 0 -3 0 0 0 0 0 3 0 4 0 -4 0 0 0 0 0 0 0 -1 0 3 0 0 0 3 0 0 0 -2 0 0 -2 0 3 0 0 0 0 -19 0 0 0 0 0 0 0 0 0 0 0 3 0 0 0 0 0 -3 0 0 -66 -8 0 0 0 0 0 -8 0 3 -2 0 0 0 0 5 0 0 0 0 0 0 0 0 0 0 7 0 0 0 0 0 0 0 0 -3 0 0 0 0 0 0 0 0 0 0 0 0 0 0 -5 0 -2 0 -6 2 0 0 0 0 0 0 0 0 0 0 0 0 0 15 0 0 0 0 0 0 0 0 0 0 0 0 0 0 0 0 0 -9 0 0 0 0 0 0 0 0 0 0 0 19 0 0 0 0 0 0 0 -2 0 0 0 -66 0 0 0 -4 -5 0 0 -4 0 0 0 0 0 0 2 0 0 0 0 0 0 0 0 0 0 0 0 0 0 0 0 0 0 0 0 0 0 0 0 0 0 0 0 0 0 -66 0 0 0 0 0 0 0 0 0 0 0 -4 0 0 0 0 0 0 0 0 4 0 0 -8 0 0 0 0 -5 2 0 3 0 0 8 0 0 -3 0 0 0 0 0 3 -5 0 -2 0 -7 7 0 -6 15 0 -19 0 0 -1 3 5 4 0 0 0 0 0 -2 0 0 0 0 0 0 0 0 0 0 0 0 0 0 -9 13 0 0 0 0 0 0 0 0 0 0 0 0 0 0 0 0 0 0 0 0 0 0 0 0 0 0 0 0 0 0 0 0 0 0 0 0 0 0 0 0 0 0 0 0 0 0 0 0 0 0 0 0 0 0 0 0 0 0 0 0 0 0 0 0 0 0 0 0 0 
-6 0 -6 0 -6 0 0 -6 0 0 0 0 84 0 0 0 0 -8 0 0 0 0 0 0 -76 0 0 0 0 0 0 0 0 0 0 0 0 0 0 0 0 0 0 0 0 0 0 0 0 0 0 0 0 0 0 0 0 0 0 0 0 0 8 0 0 0 0 8 0 0 0 0 0 0 0 0 0 0 0 0 0 0 8 0 0 0 0 0 0 0 0 0 0 0 -76 0 0 0 0 0 0 0 0 0 0 0 0 0 0 0 0 0 0 0 0 0 0 0 0 0 0 0 0 0 0 0 0 0 0 0 0 0 0 0 0 0 0 0 0 0 0 0 0 0 0 0 0 0 0 0 0 0 0 0 0 0 0 0 0 0 0 0 0 0 0 0 0 0 0 0 0 0 0 0 0 0 0 0 0 0 0 0 0 0 0 0 0 0 0 0 0 0 0 0 0 0 0 0 0 -76 0 0 0 0 0 0 0 0 0 0 0 0 0 0 0 0 0 0 0 0 0 0 0 0 0 0 0 0 0 0 0 0 0 0 0 0 0 0 0 0 0 0 0 0 0 0 0 0 0 0 0 0 0 0 0 0 0 0 0 0 0 0 0 0 0 0 0 0 0 0 0 0 0 0 0 0 0 0 0 0 0 0 0 0 0 0 0 0 0 0 0 0 0 0 0 0 0 0 0 0 0 0 0 0 0 0 0 0 0 0 0 0 0 0 0 0 0 0 0 0 0 0 0 0 0 0 0 0 0 0 0 0 0 0 0 0 0 0 0 0 0 0 0 0 0 0 -8 0 0 0 0 0 0 0 0 0 0 0 0 0 0 0 0 0 0 76 0 0 0 0 0 0 0 0 0 0 0 0 0 0 0 0 0 0 0 0 0 0 0 0 0 0 0 0 0 0 0 0 0 0 0 0 0 0 0 0 0 0 0 0 0 0 0 0 0 0 0 0 0 0 0 0 0 0 0 0 0 0 0 0 0 0 0 0 0 0 0 0 0 0 0 0 0 0 0 0 0 0 0 0 0 0 0 0 0 0 0 0 0 0 0 0 0 0 0 0 0 0 0 0 0 0 0 0 0 
-26 -12 10 -12 8 0 -6 6 7 -5 -4 0 8 0 0 0 0 -8 0 0 -1 0 0 0 -17 -5 -11 0 0 0 0 0 0 5 -1 0 0 -6 -1 0 0 0 0 4 -10 0 0 0 0 -1 0 0 0 0 0 7 0 0 0 0 0 0 8 -1 0 0 0 8 0 0 3 -10 0 0 0 0 -6 0 0 -2 0 0 8 0 0 0 0 0 0 0 0 0 2 0 0 0 -4 0 0 0 0 0 0 -3 0 0 0 0 0 0 0 0 -3 2 0 0 0 0 0 0 -3 0 0 0 -1 -2 -3 0 0 -2 -3 0 0 0 3 0 1 3 1 3 0 0 0 0 0 0 0 0 0 0 0 0 0 -2 0 0 0 0 1 0 0 0 0 0 0 0 17 0 0 0 7 0 7 0 0 5 0 -1 0 0 5 0 0 0 0 0 0 0 -1 0 0 0 0 0 2 0 -7 0 7 0 -1 0 0 0 0 0 4 0 0 0 0 0 0 0 6 -5 0 0 0 0 0 0 0 0 -4 0 7 0 0 0 0 0 0 0 0 0 0 0 0 0 0 0 0 -6 0 0 0 0 1 -1 0 0 0 0 0 0 0 0 0 0 0 0 -6 0 0 0 0 -3 0 0 0 0 0 0 0 0 0 0 0 0 0 -5 0 0 7 1 0 0 0 0 0 0 -2 -2 0 0 0 0 0 0 0 0 0 0 0 0 0 0 0 0 0 0 0 0 0 0 0 0 0 0 0 0 0 0 0 4 0 0 2 0 0 0 0 0 0 0 0 0 0 7 0 0 0 0 0 0 -8 0 0 3 0 -60 65 0 0 0 -10 -2 -5 0 0 1 0 0 -1 0 1 -5 -6 0 0 0 0 1 0 0 6 0 2 1 0 0 5 -7 -1 0 0 0 0 0 2 0 0 0 0 0 0 0 0 0 -4 0 -2 0 0 0 0 -7 0 0 0 0 0 0 0 0 0 0 0 0 0 0 0 0 0 0 0 0 0 0 0 0 0 0 0 0 0 0 0 0 0 0 0 0 0 0 0 0 0 0 0 0 0 0 0 0 0 0 0 0 0 0 0 0 0 0 0 0 0 0 0 0 0 0 0 
-6 -4 0 -5 0 -1 0 0 -3 0 0 0 0 -4 -4 0 0 -4 -92 0 0 0 0 0 -92 3 -92 0 0 0 0 0 0 -8 0 0 0 0 0 0 0 0 0 0 0 0 0 0 0 -3 0 1 0 0 0 -3 0 0 0 0 0 0 4 0 0 0 0 4 0 0 0 0 0 0 0 0 0 0 0 0 0 0 4 0 0 0 0 -3 0 3 0 0 0 -1 0 0 0 0 0 0 0 0 0 0 0 0 0 0 -3 0 0 0 3 0 0 0 0 0 0 0 0 0 0 0 0 0 3 0 0 0 3 0 0 0 0 0 0 0 0 0 0 0 0 0 0 0 0 0 0 0 0 0 0 0 0 0 0 0 -3 0 0 0 0 0 0 0 0 0 0 0 0 0 0 0 0 -11 0 0 0 0 8 0 0 0 0 0 0 0 0 0 0 0 0 0 0 0 0 -29 0 0 0 0 0 0 0 0 0 0 0 0 0 0 0 0 0 -5 0 0 0 0 0 -29 0 0 0 0 0 0 0 0 0 0 0 0 0 0 0 0 0 0 0 0 0 0 0 0 0 0 0 0 0 0 0 0 0 0 0 0 0 0 0 0 0 0 0 0 0 0 0 0 0 0 0 0 0 0 0 0 0 0 0 -5 0 0 0 0 0 0 0 0 0 0 0 0 0 -3 0 -3 0 0 0 0 0 0 0 0 0 0 0 0 0 0 0 0 0 0 0 0 0 0 0 92 0 0 0 0 0 0 0 0 0 0 0 0 0 0 0 0 0 0 0 0 0 0 0 0 -4 1 0 0 0 -3 0 0 0 0 0 0 0 0 0 0 0 0 0 0 0 -5 0 0 0 0 0 0 0 0 0 0 0 0 0 0 8 0 0 0 0 0 0 0 0 0 3 0 0 0 3 0 -92 0 0 0 0 0 0 0 0 0 0 0 0 0 0 0 0 0 0 0 0 0 0 0 0 0 0 0 0 0 0 0 0 0 0 0 0 0 0 0 0 0 0 0 0 0 0 0 0 0 0 0 0 0 0 0 0 0 0 0 0 0 0 0 0 0 0 0 0 0 0 0 0 0 0 0 0 
#OUTPUT END
Model has been successfully processed
